StringID		Type		X		Y		Demand		ServiceBy
D0		d		-7.6		16.5		0.0		-
C1		c		-6.7		-4.1		3.85		D/T
C2		c		-9.0		-8.3		4.89		D/T
C3		c		-13.9		-8.7		1.4		D/T
C4		c		-19.5		13.2		4.69		D/T
C5		c		-5.1		-2.8		3.51		D/T
C6		c		-6.6		12.5		3.37		D/T
C7		c		-17.4		2.1		3.17		D/T
C8		c		-11.2		8.2		4.82		D/T
C9		c		-7.3		4.3		3.81		D/T
C10		c		-10.6		9.4		1.84		D/T